20
5
37	59	65	70	94	
36	16	94	3	98	
1	90	96	43	63	
4	3	47	14	83	
64	76	35	26	19	
74	74	34	83	79	
32	22	84	26	54	
67	30	3	65	78	
73	89	60	47	29	
7	61	34	94	8	
78	39	70	75	38	
64	15	57	30	97	
98	69	8	1	61	
60	57	74	71	10	
89	9	13	46	37	
49	13	37	87	16	
2	71	87	78	78	
79	2	71	76	96	
79	34	89	75	9	
53	49	57	55	91	